Version identifier: 22.1.0.0 | 2022-03-09 | 1a383f8ce
CPXPARAM_Threads                                 1
CPXPARAM_MIP_Strategy_VariableSelect             3
CPXPARAM_TimeLimit                               599.99895718000005
1 of 1 MIP starts provided solutions.
MIP start 'm1' defined initial solution with objective 300.0000.
Tried aggregator 2 times.
MIP Presolve eliminated 69 rows and 1 columns.
MIP Presolve added 36 rows and 9 columns.
MIP Presolve modified 55 coefficients.
Aggregator did 9 substitutions.
Reduced MIP has 3284 rows, 7800 columns, and 179890 nonzeros.
Reduced MIP has 7800 binaries, 0 generals, 0 SOSs, and 0 indicators.
Presolve time = 0.21 sec. (287.55 ticks)
Probing time = 0.03 sec. (31.13 ticks)
Tried aggregator 1 time.
Detecting symmetries...
MIP Presolve modified 13 coefficients.
Reduced MIP has 3284 rows, 7800 columns, and 180264 nonzeros.
Reduced MIP has 7800 binaries, 0 generals, 0 SOSs, and 0 indicators.
Presolve time = 0.15 sec. (210.06 ticks)
Probing time = 0.03 sec. (31.15 ticks)
Clique table members: 898.
MIP emphasis: balance optimality and feasibility.
MIP search method: dynamic search.
Parallel mode: none, using 1 thread.
Root relaxation solution time = 0.03 sec. (28.73 ticks)

        Nodes                                         Cuts/
   Node  Left     Objective  IInf  Best Integer    Best Bound    ItCnt     Gap

*     0+    0                          300.0000    45150.0000              --- 
      0     0        cutoff            300.0000                     26     --- 

Root node processing (before b&c):
  Real time             =    0.55 sec. (673.76 ticks)
Sequential b&c:
  Real time             =    0.00 sec. (0.00 ticks)
                          ------------
Total (root+branch&cut) =    0.55 sec. (673.76 ticks)
Primal:	300
Dual:	300
Status:	Optimal
Time:	0.58
Sequence:
	14
	20
	0
	19
	23
	8
	22
	4
	1
	16
	20
	12
	21
	24
	6
	10
	15
	11
	23
	20
	24
	21
	13
	4
	21
	0
	22
	10
	7
	20
	11
	17
	17
	10
	10
	10
	15
	8
	14
	0
	7
	7
	21
	21
	10
	23
	0
	7
	17
	8
	10
	0
	14
	0
	2
	0
	6
	2
	0
	0
	16
	2
	0
	16
	0
	14
	2
	8
	12
	7
	2
	2
	4
	19
	3
	8
	2
	4
	22
	12
	20
	18
	16
	2
	6
	16
	20
	23
	2
	3
	12
	24
	2
	13
	9
	8
	4
	2
	23
	2
	6
	20
	14
	8
	2
	4
	6
	22
	4
	2
	13
	0
	19
	0
	16
	6
	11
	4
	19
	22
	13
	16
	17
	8
	10
	14
	6
	15
	23
	12
	16
	0
	19
	4
	6
	19
	13
	15
	6
	16
	20
	23
	9
	12
	0
	13
	10
	15
	12
	14
	20
	23
	16
	23
	5
	0
	15
	12
	2
	4
	24
	0
	4
	14
	2
	20
	8
	3
	20
	10
	16
	24
	10
	15
	10
	12
	13
	23
	4
	6
	8
	4
	17
	24
	13
	10
	23
	20
	12
	6
	4
	17
	0
	13
	8
	12
	0
	12
	8
	15
	12
	0
	13
	4
	23
	0
	0
	4
	12
	0
	13
	2
	12
	20
	14
	12
	23
	0
	23
	20
	13
	2
	0
	17
	14
	4
	23
	2
	20
	5
	23
	23
	20
	2
	13
	2
	0
	4
	14
	23
	4
	23
	13
	0
	12
	4
	0
	0
	23
	2
	14
	4
	12
	0
	2
	0
	4
	14
	23
	12
	12
	2
	0
	4
	2
	23
	2
	0
	0
	4
	2
	2
	23
	4
	0
	2
	2
	23
	0
	23
	14
	4
	2
	23
	0
	2
	4
	23
	23
	2
	23
	4
	0
	2
	4
	0
	2
	0
	2
	0
